30
1 192 157
2 280 259
3 20 140
4 122 292
5 160 135
6 76 294
7 72 83
8 11 193
9 45 361
10 70 26
11 297 92
12 179 296
13 123 107
14 176 14
15 143 138
16 252 294
17 2 44
18 87 298
19 213 196
20 247 9
21 271 173
22 380 72
23 360 133
24 327 231
25 147 241
26 374 374
27 92 190
28 195 295
29 83 52
30 47 261
